75
[15,16,17,18,19,20,21,22,23,24,25,26,27,28,29,30,31,32,33,34,35,36,37,38,39,40,41,42,43,44,45,46,47,48,49,50,51,52,53,54,55,56,57,58,59,60]
[23,23,19,22,24,22,25,24,15,20,31,24,13,21,25,18,22,23,21,18,28,29,17,20,16,23,27,22,21,15,21,20,20,29,24,16,16,23,20,18,20,22,29,23,23,25]
